p cnf 17 9
-13 -4 -14 16 0
13 -4 -12 -1 17 -9 -14 -2 16 3 -11 5 7 10 -6 8 15 0
4 17 -6 0
16 -8 7 -14 0
-1 -17 -11 -15 9 -7 -6 -16 8 4 -10 -2 14 -13 3 0
-1 6 -15 10 -9 -11 -14 -16 12 0
16 -11 0
10 -6 3 -9 0
8 17 -9 -3 11 15 2 -4 0
